# Solution for model Food_Bank
# Objective value = 5.1725327230905723e+06
x_1_44 0
x_1_198 0
x_1_202 0
x_1_47 0
x_1_197 1
x_1_199 0
x_1_29 1
x_1_97 0
x_1_15 0
x_1_43 0
x_1_123 1
x_1_42 0
x_1_205 1
x_1_122 1
x_1_133 0
x_1_220 1
x_1_101 1
x_1_86 1
x_1_17 0
x_1_130 0
x_1_208 1
x_1_214 0
x_1_146 1
y_44_93 0
y_44_80 0
y_44_68 0
y_44_67 0
y_44_63 0
y_44_92 0
y_44_82 0
y_44_66 0
y_44_56 0
y_44_40 0
y_198_93 0
y_198_80 0
y_198_68 0
y_198_67 0
y_198_63 0
y_198_92 0
y_198_82 0
y_198_66 0
y_198_56 0
y_198_40 0
y_202_93 0
y_202_80 0
y_202_68 0
y_202_67 0
y_202_63 0
y_202_92 0
y_202_82 0
y_202_66 0
y_202_56 0
y_202_40 0
y_47_93 0
y_47_80 0
y_47_68 0
y_47_67 0
y_47_63 0
y_47_92 0
y_47_82 0
y_47_66 0
y_47_56 0
y_47_40 0
y_197_93 1
y_197_80 0
y_197_68 0
y_197_67 0
y_197_63 0
y_197_92 0
y_197_82 0
y_197_66 0
y_197_56 0
y_197_40 0
y_199_93 0
y_199_80 0
y_199_68 0
y_199_67 0
y_199_63 0
y_199_92 0
y_199_82 0
y_199_66 0
y_199_56 0
y_199_40 0
y_29_93 0
y_29_80 0
y_29_68 0
y_29_67 0
y_29_63 0
y_29_92 1
y_29_82 0
y_29_66 0
y_29_56 0
y_29_40 0
y_97_93 0
y_97_80 0
y_97_68 0
y_97_67 0
y_97_63 0
y_97_92 0
y_97_82 0
y_97_66 0
y_97_56 0
y_97_40 0
y_15_93 0
y_15_80 0
y_15_68 0
y_15_67 0
y_15_63 0
y_15_92 0
y_15_82 0
y_15_66 0
y_15_56 0
y_15_40 0
y_43_93 0
y_43_80 0
y_43_68 0
y_43_67 0
y_43_63 0
y_43_92 0
y_43_82 0
y_43_66 0
y_43_56 0
y_43_40 0
y_123_93 0
y_123_80 0
y_123_68 0
y_123_67 0
y_123_63 0
y_123_92 0
y_123_82 0
y_123_66 0
y_123_56 1
y_123_40 0
y_42_93 0
y_42_80 0
y_42_68 0
y_42_67 0
y_42_63 0
y_42_92 0
y_42_82 0
y_42_66 0
y_42_56 0
y_42_40 0
y_205_93 0
y_205_80 0
y_205_68 1
y_205_67 0
y_205_63 0
y_205_92 0
y_205_82 0
y_205_66 0
y_205_56 0
y_205_40 0
y_122_93 0
y_122_80 0
y_122_68 0
y_122_67 1
y_122_63 0
y_122_92 0
y_122_82 0
y_122_66 0
y_122_56 0
y_122_40 0
y_133_93 0
y_133_80 0
y_133_68 0
y_133_67 0
y_133_63 0
y_133_92 0
y_133_82 0
y_133_66 0
y_133_56 0
y_133_40 0
y_220_93 0
y_220_80 0
y_220_68 0
y_220_67 0
y_220_63 1
y_220_92 0
y_220_82 0
y_220_66 0
y_220_56 0
y_220_40 0
y_101_93 0
y_101_80 0
y_101_68 0
y_101_67 0
y_101_63 0
y_101_92 0
y_101_82 0
y_101_66 1
y_101_56 0
y_101_40 0
y_86_93 0
y_86_80 0
y_86_68 0
y_86_67 0
y_86_63 0
y_86_92 0
y_86_82 0
y_86_66 0
y_86_56 0
y_86_40 1
y_17_93 0
y_17_80 0
y_17_68 0
y_17_67 0
y_17_63 0
y_17_92 0
y_17_82 0
y_17_66 0
y_17_56 0
y_17_40 0
y_130_93 0
y_130_80 0
y_130_68 0
y_130_67 0
y_130_63 0
y_130_92 0
y_130_82 0
y_130_66 0
y_130_56 0
y_130_40 0
y_208_93 0
y_208_80 0
y_208_68 0
y_208_67 0
y_208_63 0
y_208_92 0
y_208_82 1
y_208_66 0
y_208_56 0
y_208_40 0
y_214_93 0
y_214_80 0
y_214_68 0
y_214_67 0
y_214_63 0
y_214_92 0
y_214_82 0
y_214_66 0
y_214_56 0
y_214_40 0
y_146_93 0
y_146_80 1
y_146_68 0
y_146_67 0
y_146_63 0
y_146_92 0
y_146_82 0
y_146_66 0
y_146_56 0
y_146_40 0
aFP_1_44 0
aFP_1_198 0
aFP_1_202 0
aFP_1_47 0
aFP_1_197 7.4516816033874666e+03
aFP_1_199 0
aFP_1_29 1.5272186378479730e+03
aFP_1_97 0
aFP_1_15 0
aFP_1_43 0
aFP_1_123 2.7458772889721240e+03
aFP_1_42 0
aFP_1_205 5.9174817297300442e+03
aFP_1_122 2.9297515473329904e+03
aFP_1_133 0
aFP_1_220 5.1531804131038862e+03
aFP_1_101 1.8182379328135830e+03
aFP_1_86 5.5609321544575059e+03
aFP_1_17 0
aFP_1_130 0
aFP_1_208 9.4123367180611313e+03
aFP_1_214 0
aFP_1_146 6.5227965946518780e+03
aPZ_44_93 0
aPZ_198_93 0
aPZ_202_93 0
aPZ_47_93 0
aPZ_197_93 7.4516816033874766e+03
aPZ_199_93 0
aPZ_29_93 0
aPZ_97_93 0
aPZ_15_93 0
aPZ_43_93 0
aPZ_123_93 0
aPZ_42_93 0
aPZ_205_93 0
aPZ_122_93 0
aPZ_133_93 0
aPZ_220_93 0
aPZ_101_93 0
aPZ_86_93 0
aPZ_17_93 0
aPZ_130_93 0
aPZ_208_93 0
aPZ_214_93 0
aPZ_146_93 0
aPZ_44_80 0
aPZ_198_80 0
aPZ_202_80 0
aPZ_47_80 0
aPZ_197_80 0
aPZ_199_80 0
aPZ_29_80 0
aPZ_97_80 0
aPZ_15_80 0
aPZ_43_80 0
aPZ_123_80 0
aPZ_42_80 0
aPZ_205_80 0
aPZ_122_80 0
aPZ_133_80 0
aPZ_220_80 0
aPZ_101_80 0
aPZ_86_80 0
aPZ_17_80 0
aPZ_130_80 0
aPZ_208_80 0
aPZ_214_80 0
aPZ_146_80 6.5227965946518889e+03
aPZ_44_68 0
aPZ_198_68 0
aPZ_202_68 0
aPZ_47_68 0
aPZ_197_68 0
aPZ_199_68 0
aPZ_29_68 0
aPZ_97_68 0
aPZ_15_68 0
aPZ_43_68 0
aPZ_123_68 0
aPZ_42_68 0
aPZ_205_68 5.9174817297300524e+03
aPZ_122_68 0
aPZ_133_68 0
aPZ_220_68 0
aPZ_101_68 0
aPZ_86_68 0
aPZ_17_68 0
aPZ_130_68 0
aPZ_208_68 0
aPZ_214_68 0
aPZ_146_68 0
aPZ_44_67 0
aPZ_198_67 0
aPZ_202_67 0
aPZ_47_67 0
aPZ_197_67 0
aPZ_199_67 0
aPZ_29_67 0
aPZ_97_67 0
aPZ_15_67 0
aPZ_43_67 0
aPZ_123_67 0
aPZ_42_67 0
aPZ_205_67 0
aPZ_122_67 2.9297515473329904e+03
aPZ_133_67 0
aPZ_220_67 0
aPZ_101_67 0
aPZ_86_67 0
aPZ_17_67 0
aPZ_130_67 0
aPZ_208_67 0
aPZ_214_67 0
aPZ_146_67 0
aPZ_44_63 0
aPZ_198_63 0
aPZ_202_63 0
aPZ_47_63 0
aPZ_197_63 0
aPZ_199_63 0
aPZ_29_63 0
aPZ_97_63 0
aPZ_15_63 0
aPZ_43_63 0
aPZ_123_63 0
aPZ_42_63 0
aPZ_205_63 0
aPZ_122_63 0
aPZ_133_63 0
aPZ_220_63 5.1531804131038862e+03
aPZ_101_63 0
aPZ_86_63 0
aPZ_17_63 0
aPZ_130_63 0
aPZ_208_63 0
aPZ_214_63 0
aPZ_146_63 0
aPZ_44_92 0
aPZ_198_92 0
aPZ_202_92 0
aPZ_47_92 0
aPZ_197_92 0
aPZ_199_92 0
aPZ_29_92 1.5272186378480467e+03
aPZ_97_92 0
aPZ_15_92 0
aPZ_43_92 0
aPZ_123_92 0
aPZ_42_92 0
aPZ_205_92 0
aPZ_122_92 0
aPZ_133_92 0
aPZ_220_92 0
aPZ_101_92 0
aPZ_86_92 0
aPZ_17_92 0
aPZ_130_92 0
aPZ_208_92 0
aPZ_214_92 0
aPZ_146_92 0
aPZ_44_82 0
aPZ_198_82 0
aPZ_202_82 0
aPZ_47_82 0
aPZ_197_82 0
aPZ_199_82 0
aPZ_29_82 0
aPZ_97_82 0
aPZ_15_82 0
aPZ_43_82 0
aPZ_123_82 0
aPZ_42_82 0
aPZ_205_82 0
aPZ_122_82 0
aPZ_133_82 0
aPZ_220_82 0
aPZ_101_82 0
aPZ_86_82 0
aPZ_17_82 0
aPZ_130_82 0
aPZ_208_82 9.4123367180611313e+03
aPZ_214_82 0
aPZ_146_82 0
aPZ_44_66 0
aPZ_198_66 0
aPZ_202_66 0
aPZ_47_66 0
aPZ_197_66 0
aPZ_199_66 0
aPZ_29_66 0
aPZ_97_66 0
aPZ_15_66 0
aPZ_43_66 0
aPZ_123_66 0
aPZ_42_66 0
aPZ_205_66 0
aPZ_122_66 0
aPZ_133_66 0
aPZ_220_66 0
aPZ_101_66 1.8182379328135830e+03
aPZ_86_66 0
aPZ_17_66 0
aPZ_130_66 0
aPZ_208_66 0
aPZ_214_66 0
aPZ_146_66 0
aPZ_44_56 0
aPZ_198_56 0
aPZ_202_56 0
aPZ_47_56 0
aPZ_197_56 0
aPZ_199_56 0
aPZ_29_56 0
aPZ_97_56 0
aPZ_15_56 0
aPZ_43_56 0
aPZ_123_56 2.7458772889721295e+03
aPZ_42_56 0
aPZ_205_56 0
aPZ_122_56 0
aPZ_133_56 0
aPZ_220_56 0
aPZ_101_56 0
aPZ_86_56 0
aPZ_17_56 0
aPZ_130_56 0
aPZ_208_56 0
aPZ_214_56 0
aPZ_146_56 0
aPZ_44_40 0
aPZ_198_40 0
aPZ_202_40 0
aPZ_47_40 0
aPZ_197_40 0
aPZ_199_40 0
aPZ_29_40 0
aPZ_97_40 0
aPZ_15_40 0
aPZ_43_40 0
aPZ_123_40 0
aPZ_42_40 0
aPZ_205_40 0
aPZ_122_40 0
aPZ_133_40 0
aPZ_220_40 0
aPZ_101_40 0
aPZ_86_40 5.5609321544575059e+03
aPZ_17_40 0
aPZ_130_40 0
aPZ_208_40 0
aPZ_214_40 0
aPZ_146_40 0
nT_1_44 0
nT_1_198 0
nT_1_202 0
nT_1_47 0
nT_1_197 1
nT_1_199 0
nT_1_29 1
nT_1_97 0
nT_1_15 0
nT_1_43 0
nT_1_123 1
nT_1_42 0
nT_1_205 1
nT_1_122 1
nT_1_133 0
nT_1_220 1
nT_1_101 1
nT_1_86 1
nT_1_17 0
nT_1_130 0
nT_1_208 1
nT_1_214 0
nT_1_146 1
ort_1_44 0
ort_1_198 0
ort_1_202 0
ort_1_47 0
ort_1_197 8.88888888888889
ort_1_199 0
ort_1_29 8.88888888888889
ort_1_97 0
ort_1_15 0
ort_1_43 0
ort_1_123 8.88888888888889
ort_1_42 0
ort_1_205 8.88888888888889
ort_1_122 9.23076923076923
ort_1_133 0
ort_1_220 8.88888888888889
ort_1_101 8.88888888888889
ort_1_86 8.88888888888889
ort_1_17 0
ort_1_130 0
ort_1_208 8.88888888888889
ort_1_214 0
ort_1_146 8.88888888888889
opt_1_44 0
opt_1_198 0
opt_1_202 0
opt_1_47 0
opt_1_197 8.2496381420104115e+00
opt_1_199 0
opt_1_29 8.4858612903298241e+00
opt_1_97 0
opt_1_15 0
opt_1_43 0
opt_1_123 8.4115950244402828e+00
opt_1_42 0
opt_1_205 8.20634813573572
opt_1_122 8.6709483200692468e+00
opt_1_133 0
opt_1_220 8.2112298682336942e+00
opt_1_101 8.33797699224821
opt_1_86 8.1441756144993480e+00
opt_1_17 0
opt_1_130 0
opt_1_208 7.9449387196525
opt_1_214 0
opt_1_146 8.0760823924611120e+00
dt_44_93 0
dt_44_80 0
dt_44_68 0
dt_44_67 0
dt_44_63 0
dt_44_92 0
dt_44_82 0
dt_44_66 0
dt_44_56 0
dt_44_40 0
dt_198_93 0
dt_198_80 0
dt_198_68 0
dt_198_67 0
dt_198_63 0
dt_198_92 0
dt_198_82 0
dt_198_66 0
dt_198_56 0
dt_198_40 0
dt_202_93 0
dt_202_80 0
dt_202_68 0
dt_202_67 0
dt_202_63 0
dt_202_92 0
dt_202_82 0
dt_202_66 0
dt_202_56 0
dt_202_40 0
dt_47_93 0
dt_47_80 0
dt_47_68 0
dt_47_67 0
dt_47_63 0
dt_47_92 0
dt_47_82 0
dt_47_66 0
dt_47_56 0
dt_47_40 0
dt_197_93 4.87208856122323
dt_197_80 0
dt_197_68 0
dt_197_67 0
dt_197_63 0
dt_197_92 0
dt_197_82 0
dt_197_66 0
dt_197_56 0
dt_197_40 0
dt_199_93 0
dt_199_80 0
dt_199_68 0
dt_199_67 0
dt_199_63 0
dt_199_92 0
dt_199_82 0
dt_199_66 0
dt_199_56 0
dt_199_40 0
dt_29_93 0
dt_29_80 0
dt_29_68 0
dt_29_67 0
dt_29_63 0
dt_29_92 2.4465265233910154e+00
dt_29_82 0
dt_29_66 0
dt_29_56 0
dt_29_40 0
dt_97_93 0
dt_97_80 0
dt_97_68 0
dt_97_67 0
dt_97_63 0
dt_97_92 0
dt_97_82 0
dt_97_66 0
dt_97_56 0
dt_97_40 0
dt_15_93 0
dt_15_80 0
dt_15_68 0
dt_15_67 0
dt_15_63 0
dt_15_92 0
dt_15_82 0
dt_15_66 0
dt_15_56 0
dt_15_40 0
dt_43_93 0
dt_43_80 0
dt_43_68 0
dt_43_67 0
dt_43_63 0
dt_43_92 0
dt_43_82 0
dt_43_66 0
dt_43_56 0
dt_43_40 0
dt_123_93 0
dt_123_80 0
dt_123_68 0
dt_123_67 0
dt_123_63 0
dt_123_92 0
dt_123_82 0
dt_123_66 0
dt_123_56 2.8890570512743965e+00
dt_123_40 0
dt_42_93 0
dt_42_80 0
dt_42_68 0
dt_42_67 0
dt_42_63 0
dt_42_92 0
dt_42_82 0
dt_42_66 0
dt_42_56 0
dt_42_40 0
dt_205_93 0
dt_205_80 0
dt_205_68 4.2791186056638244e+00
dt_205_67 0
dt_205_63 0
dt_205_92 0
dt_205_82 0
dt_205_66 0
dt_205_56 0
dt_205_40 0
dt_122_93 0
dt_122_80 0
dt_122_68 0
dt_122_67 2.8814130415665407e+00
dt_122_63 0
dt_122_92 0
dt_122_82 0
dt_122_66 0
dt_122_56 0
dt_122_40 0
dt_133_93 0
dt_133_80 0
dt_133_68 0
dt_133_67 0
dt_133_63 0
dt_133_92 0
dt_133_82 0
dt_133_66 0
dt_133_56 0
dt_133_40 0
dt_220_93 0
dt_220_80 0
dt_220_68 0
dt_220_67 0
dt_220_63 3.65961314458636
dt_220_92 0
dt_220_82 0
dt_220_66 0
dt_220_56 0
dt_220_40 0
dt_101_93 0
dt_101_80 0
dt_101_68 0
dt_101_67 0
dt_101_63 0
dt_101_92 0
dt_101_82 0
dt_101_66 2.4123832764847539e+00
dt_101_56 0
dt_101_40 0
dt_86_93 0
dt_86_80 0
dt_86_68 0
dt_86_67 0
dt_86_63 0
dt_86_92 0
dt_86_82 0
dt_86_66 0
dt_86_56 0
dt_86_40 3.5223262540601090e+00
dt_17_93 0
dt_17_80 0
dt_17_68 0
dt_17_67 0
dt_17_63 0
dt_17_92 0
dt_17_82 0
dt_17_66 0
dt_17_56 0
dt_17_40 0
dt_130_93 0
dt_130_80 0
dt_130_68 0
dt_130_67 0
dt_130_63 0
dt_130_92 0
dt_130_82 0
dt_130_66 0
dt_130_56 0
dt_130_40 0
dt_208_93 0
dt_208_80 0
dt_208_68 0
dt_208_67 0
dt_208_63 0
dt_208_92 0
dt_208_82 5.3423178513213987e+00
dt_208_66 0
dt_208_56 0
dt_208_40 0
dt_214_93 0
dt_214_80 0
dt_214_68 0
dt_214_67 0
dt_214_63 0
dt_214_92 0
dt_214_82 0
dt_214_66 0
dt_214_56 0
dt_214_40 0
dt_146_93 0
dt_146_80 4.2029788081477140e+00
dt_146_68 0
dt_146_67 0
dt_146_63 0
dt_146_92 0
dt_146_82 0
dt_146_66 0
dt_146_56 0
dt_146_40 0
ut_1_44 0
ut_1_198 0
ut_1_202 0
ut_1_47 0
ut_1_197 2.6080885611856131e+00
ut_1_199 0
ut_1_29 5.3452652324679051e-01
ut_1_97 0
ut_1_15 0
ut_1_43 0
ut_1_123 9.6105705114024342e-01
ut_1_42 0
ut_1_205 2.0711186054055153e+00
ut_1_122 1.0254130415665466e+00
ut_1_133 0
ut_1_220 1.8036131445863601e+00
ut_1_101 0.636383276484754
ut_1_86 1.9463262540601272e+00
ut_1_17 0
ut_1_130 0
ut_1_208 3.2943178513213960e+00
ut_1_214 0
ut_1_146 2.2829788081281572e+00
fFP_1_44 0
fFP_1_198 0
fFP_1_202 0
fFP_1_47 0
fFP_1_197 27
fFP_1_199 0
fFP_1_29 27
fFP_1_97 0
fFP_1_15 0
fFP_1_43 0
fFP_1_123 27
fFP_1_42 0
fFP_1_205 27
fFP_1_122 26
fFP_1_133 0
fFP_1_220 27
fFP_1_101 27
fFP_1_86 27
fFP_1_17 0
fFP_1_130 0
fFP_1_208 27
fFP_1_214 0
fFP_1_146 27
dt_93 4.8720885612228431e+00
dt_80 4.2029788081469244e+00
dt_68 4.2791186055954142e+00
dt_67 2.8814130415665407e+00
dt_63 3.65961314458636
dt_92 2.4465265232564786e+00
dt_82 5.3423178513213987e+00
dt_66 2.4123832764847539e+00
dt_56 2.8890570511562568e+00
dt_40 3.5223262540601090e+00
dtt_93 1.3154639115301671e+02
dtt_80 1.1348042781996696e+02
dtt_68 1.1553620235107621e+02
dtt_67 77.7981521222966
dtt_63 9.8809554903831724e+01
dtt_92 6.6056216127924927e+01
dtt_82 1.4424258198567776e+02
dtt_66 6.5134348465088351e+01
dtt_56 7.8004540381218931e+01
dtt_40 9.5102808859622940e+01
dep_cost 5.1236412156060934e+06
log_cost 4.8891507484479174e+04
z 5.1725327230905723e+06
